c description: Random 5-CNF over 15 variables and 65 clauses
c generator: CNFgen (0.9.0)
c copyright: (C) 2012-2020 Massimo Lauria <massimo.lauria@uniroma1.it>
c url: https://massimolauria.net/cnfgen
c
p cnf 15 65
-3 -8 10 -13 14 0
1 -2 4 -6 -8 0
-1 -5 -9 10 13 0
-3 4 6 8 11 0
3 7 -9 11 -13 0
-1 -8 -9 -10 -14 0
-1 -4 6 9 -11 0
1 7 11 -14 -15 0
-1 3 -5 -7 10 0
-1 -3 4 6 -7 0
2 -6 -8 -12 -14 0
-1 -3 6 -10 13 0
-1 3 -6 7 9 0
-1 3 11 -12 13 0
-7 -9 -10 -14 -15 0
3 -5 -7 -9 -13 0
-2 -5 -6 -12 -14 0
2 -6 7 9 15 0
-1 -5 -9 11 14 0
1 5 8 -9 15 0
6 8 9 10 -14 0
-1 5 -6 -12 -14 0
2 -3 5 -8 10 0
-3 6 -7 10 -13 0
-6 8 9 10 -14 0
-1 -3 6 -8 -11 0
-2 7 12 -13 -14 0
1 3 10 11 14 0
1 6 8 -13 14 0
-4 5 7 -10 -15 0
-1 -4 9 11 -14 0
-4 5 -9 14 -15 0
-1 2 4 -7 13 0
6 9 -10 12 14 0
-3 7 9 13 -14 0
5 -8 -13 -14 -15 0
-4 5 7 9 14 0
-4 5 6 11 -15 0
3 -5 -11 -12 15 0
-1 -5 -8 13 15 0
4 6 -10 -11 13 0
-2 -9 -10 11 -12 0
-3 -8 10 -11 -14 0
-1 5 -6 10 -14 0
-2 3 -5 9 13 0
1 4 7 12 -13 0
3 10 12 13 14 0
-4 8 -11 13 15 0
1 6 -7 12 14 0
2 4 5 10 11 0
5 11 -12 14 15 0
4 -6 -7 -9 13 0
-1 3 -10 12 14 0
1 2 -3 -5 -10 0
-2 -3 6 -8 -13 0
1 2 7 -9 12 0
2 3 6 -7 -12 0
5 6 -9 -13 14 0
-2 -3 6 11 -15 0
-2 -3 -7 -10 11 0
1 2 -7 -11 14 0
1 -2 -5 6 12 0
-9 -10 -12 -13 -14 0
-1 -5 -7 11 -12 0
4 7 9 10 -13 0